p cnf 967 2484
51 -2 -1 0
-51 2 0
-51 1 0
52 -51 -3 0
-52 51 0
-52 3 0
53 -5 -700 0
-53 5 0
-53 700 0
54 -53 -701 0
-54 53 0
-54 701 0
55 -702 -703 0
-55 702 0
-55 703 0
56 -7 -1 0
-56 7 0
-56 1 0
57 -56 -701 0
-57 56 0
-57 701 0
58 -704 -55 0
-58 704 0
-58 55 0
59 -9 -705 0
-59 9 0
-59 705 0
60 -59 -10 0
-60 59 0
-60 10 0
61 -706 -58 0
-61 706 0
-61 58 0
62 -707 -700 0
-62 707 0
-62 700 0
63 -62 -11 0
-63 62 0
-63 11 0
64 -708 -61 0
-64 708 0
-64 61 0
65 -13 -12 0
-65 13 0
-65 12 0
66 -65 -709 0
-66 65 0
-66 709 0
67 -710 -64 0
-67 710 0
-67 64 0
68 -3 -711 0
-68 3 0
-68 711 0
69 -68 -712 0
-69 68 0
-69 712 0
70 -713 -67 0
-70 713 0
-70 67 0
71 -17 -16 0
-71 17 0
-71 16 0
72 -71 -18 0
-72 71 0
-72 18 0
73 -714 -70 0
-73 714 0
-73 70 0
74 -19 -715 0
-74 19 0
-74 715 0
75 -74 -709 0
-75 74 0
-75 709 0
76 -716 -73 0
-76 716 0
-76 73 0
77 -10 -707 0
-77 10 0
-77 707 0
78 -77 -20 0
-78 77 0
-78 20 0
79 -717 -76 0
-79 717 0
-79 76 0
80 -22 -21 0
-80 22 0
-80 21 0
81 -80 -23 0
-81 80 0
-81 23 0
82 -718 -79 0
-82 718 0
-82 79 0
83 -701 -719 0
-83 701 0
-83 719 0
84 -83 -720 0
-84 83 0
-84 720 0
85 -721 -82 0
-85 721 0
-85 82 0
86 -722 -16 0
-86 722 0
-86 16 0
87 -86 -723 0
-87 86 0
-87 723 0
88 -724 -85 0
-88 724 0
-88 85 0
89 -725 -720 0
-89 725 0
-89 720 0
90 -89 -21 0
-90 89 0
-90 21 0
91 -726 -88 0
-91 726 0
-91 88 0
92 -29 -28 0
-92 29 0
-92 28 0
93 -92 -715 0
-93 92 0
-93 715 0
94 -727 -91 0
-94 727 0
-94 91 0
95 -26 -21 0
-95 26 0
-95 21 0
96 -95 -3 0
-96 95 0
-96 3 0
97 -728 -94 0
-97 728 0
-97 94 0
98 -30 -711 0
-98 30 0
-98 711 0
99 -98 -31 0
-99 98 0
-99 31 0
100 -729 -97 0
-100 729 0
-100 97 0
101 -32 -30 0
-101 32 0
-101 30 0
102 -101 -730 0
-102 101 0
-102 730 0
103 -731 -100 0
-103 731 0
-103 100 0
104 -732 -10 0
-104 732 0
-104 10 0
105 -104 -22 0
-105 104 0
-105 22 0
106 -733 -103 0
-106 733 0
-106 103 0
107 -734 -11 0
-107 734 0
-107 11 0
108 -107 -735 0
-108 107 0
-108 735 0
109 -736 -106 0
-109 736 0
-109 106 0
110 -34 -737 0
-110 34 0
-110 737 0
111 -110 -720 0
-111 110 0
-111 720 0
112 -738 -109 0
-112 738 0
-112 109 0
113 -35 -725 0
-113 35 0
-113 725 0
114 -113 -739 0
-114 113 0
-114 739 0
115 -740 -112 0
-115 740 0
-115 112 0
116 -741 -8 0
-116 741 0
-116 8 0
117 -116 -742 0
-117 116 0
-117 742 0
118 -743 -115 0
-118 743 0
-118 115 0
119 -37 -9 0
-119 37 0
-119 9 0
120 -119 -744 0
-120 119 0
-120 744 0
121 -745 -118 0
-121 745 0
-121 118 0
122 -38 -722 0
-122 38 0
-122 722 0
123 -122 -746 0
-123 122 0
-123 746 0
124 -747 -121 0
-124 747 0
-124 121 0
125 -748 -715 0
-125 748 0
-125 715 0
126 -125 -749 0
-126 125 0
-126 749 0
127 -750 -124 0
-127 750 0
-127 124 0
128 -29 -720 0
-128 29 0
-128 720 0
129 -128 -742 0
-129 128 0
-129 742 0
130 -751 -127 0
-130 751 0
-130 127 0
131 -28 -16 0
-131 28 0
-131 16 0
132 -131 -752 0
-132 131 0
-132 752 0
133 -753 -130 0
-133 753 0
-133 130 0
134 -41 -754 0
-134 41 0
-134 754 0
135 -134 -755 0
-135 134 0
-135 755 0
136 -756 -133 0
-136 756 0
-136 133 0
137 -34 -28 0
-137 34 0
-137 28 0
138 -137 -749 0
-138 137 0
-138 749 0
139 -757 -136 0
-139 757 0
-139 136 0
140 -43 -38 0
-140 43 0
-140 38 0
141 -140 -40 0
-141 140 0
-141 40 0
142 -758 -139 0
-142 758 0
-142 139 0
143 -752 -14 0
-143 752 0
-143 14 0
144 -143 -742 0
-144 143 0
-144 742 0
145 -759 -142 0
-145 759 0
-145 142 0
146 -730 -741 0
-146 730 0
-146 741 0
147 -146 -40 0
-147 146 0
-147 40 0
148 -760 -145 0
-148 760 0
-148 145 0
149 -26 -761 0
-149 26 0
-149 761 0
150 -149 -725 0
-150 149 0
-150 725 0
151 -762 -148 0
-151 762 0
-151 148 0
152 -5 -4 0
-152 5 0
-152 4 0
153 -152 -701 0
-153 152 0
-153 701 0
154 -763 -151 0
-154 763 0
-154 151 0
155 -44 -25 0
-155 44 0
-155 25 0
156 -155 -20 0
-156 155 0
-156 20 0
157 -764 -154 0
-157 764 0
-157 154 0
158 -45 -9 0
-158 45 0
-158 9 0
159 -158 -21 0
-159 158 0
-159 21 0
160 -765 -157 0
-160 765 0
-160 157 0
161 -42 -741 0
-161 42 0
-161 741 0
162 -161 -712 0
-162 161 0
-162 712 0
163 -766 -160 0
-163 766 0
-163 160 0
164 -30 -4 0
-164 30 0
-164 4 0
165 -164 -31 0
-165 164 0
-165 31 0
166 -767 -163 0
-166 767 0
-166 163 0
167 -46 -28 0
-167 46 0
-167 28 0
168 -167 -47 0
-168 167 0
-168 47 0
169 -768 -166 0
-169 768 0
-169 166 0
170 -769 -19 0
-170 769 0
-170 19 0
171 -170 -48 0
-171 170 0
-171 48 0
172 -770 -169 0
-172 770 0
-172 169 0
173 -771 -8 0
-173 771 0
-173 8 0
174 -173 -27 0
-174 173 0
-174 27 0
175 -772 -172 0
-175 772 0
-175 172 0
176 -49 -746 0
-176 49 0
-176 746 0
177 -176 -744 0
-177 176 0
-177 744 0
178 -773 -175 0
-178 773 0
-178 175 0
179 -48 -761 0
-179 48 0
-179 761 0
180 -179 -739 0
-180 179 0
-180 739 0
181 -774 -178 0
-181 774 0
-181 178 0
182 -722 -23 0
-182 722 0
-182 23 0
183 -182 -33 0
-183 182 0
-183 33 0
184 -775 -181 0
-184 775 0
-184 181 0
185 -723 -21 0
-185 723 0
-185 21 0
186 -185 -15 0
-186 185 0
-186 15 0
187 -776 -184 0
-187 776 0
-187 184 0
188 -746 -700 0
-188 746 0
-188 700 0
189 -188 -739 0
-189 188 0
-189 739 0
190 -777 -187 0
-190 777 0
-190 187 0
191 -46 -707 0
-191 46 0
-191 707 0
192 -191 -739 0
-192 191 0
-192 739 0
193 -778 -190 0
-193 778 0
-193 190 0
194 -709 -700 0
-194 709 0
-194 700 0
195 -194 -739 0
-195 194 0
-195 739 0
196 -779 -193 0
-196 779 0
-196 193 0
197 -780 -709 0
-197 780 0
-197 709 0
198 -197 -752 0
-198 197 0
-198 752 0
199 -781 -196 0
-199 781 0
-199 196 0
200 -50 -782 0
-200 50 0
-200 782 0
201 -200 -28 0
-201 200 0
-201 28 0
202 -783 -199 0
-202 783 0
-202 199 0
203 -25 -14 0
-203 25 0
-203 14 0
204 -203 -735 0
-204 203 0
-204 735 0
205 -784 -202 0
-205 784 0
-205 202 0
206 -22 -737 0
-206 22 0
-206 737 0
207 -206 -15 0
-207 206 0
-207 15 0
208 -785 -205 0
-208 785 0
-208 205 0
209 -786 -28 0
-209 786 0
-209 28 0
210 -209 -25 0
-210 209 0
-210 25 0
211 -787 -208 0
-211 787 0
-211 208 0
212 -734 -746 0
-212 734 0
-212 746 0
213 -212 -735 0
-213 212 0
-213 735 0
214 -788 -211 0
-214 788 0
-214 211 0
215 -789 -711 0
-215 789 0
-215 711 0
216 -215 -3 0
-216 215 0
-216 3 0
217 -790 -214 0
-217 790 0
-217 214 0
218 -38 -730 0
-218 38 0
-218 730 0
219 -218 -749 0
-219 218 0
-219 749 0
220 -791 -217 0
-220 791 0
-220 217 0
221 -700 -719 0
-221 700 0
-221 719 0
222 -221 -780 0
-222 221 0
-222 780 0
223 -792 -220 0
-223 792 0
-223 220 0
224 -793 -14 0
-224 793 0
-224 14 0
225 -224 -44 0
-225 224 0
-225 44 0
226 -794 -223 0
-226 794 0
-226 223 0
227 -38 -6 0
-227 38 0
-227 6 0
228 -227 -739 0
-228 227 0
-228 739 0
229 -795 -226 0
-229 795 0
-229 226 0
230 -43 -755 0
-230 43 0
-230 755 0
231 -230 -739 0
-231 230 0
-231 739 0
232 -796 -229 0
-232 796 0
-232 229 0
233 -34 -701 0
-233 34 0
-233 701 0
234 -233 -725 0
-234 233 0
-234 725 0
235 -797 -232 0
-235 797 0
-235 232 0
236 -798 -26 0
-236 798 0
-236 26 0
237 -236 -37 0
-237 236 0
-237 37 0
238 -799 -235 0
-238 799 0
-238 235 0
239 -755 -28 0
-239 755 0
-239 28 0
240 -239 -739 0
-240 239 0
-240 739 0
241 -800 -238 0
-241 800 0
-241 238 0
242 -801 -11 0
-242 801 0
-242 11 0
243 -242 -22 0
-243 242 0
-243 22 0
244 -802 -241 0
-244 802 0
-244 241 0
245 -780 -5 0
-245 780 0
-245 5 0
246 -245 -18 0
-246 245 0
-246 18 0
247 -803 -244 0
-247 803 0
-247 244 0
248 -45 -804 0
-248 45 0
-248 804 0
249 -248 -754 0
-249 248 0
-249 754 0
250 -805 -247 0
-250 805 0
-250 247 0
251 -709 -8 0
-251 709 0
-251 8 0
252 -251 -40 0
-252 251 0
-252 40 0
253 -806 -250 0
-253 806 0
-253 250 0
254 -12 -715 0
-254 12 0
-254 715 0
255 -254 -21 0
-255 254 0
-255 21 0
256 -807 -253 0
-256 807 0
-256 253 0
257 -786 -8 0
-257 786 0
-257 8 0
258 -257 -735 0
-258 257 0
-258 735 0
259 -808 -256 0
-259 808 0
-259 256 0
260 -771 -769 0
-260 771 0
-260 769 0
261 -260 -712 0
-261 260 0
-261 712 0
262 -809 -259 0
-262 809 0
-262 259 0
263 -50 -804 0
-263 50 0
-263 804 0
264 -263 -810 0
-264 263 0
-264 810 0
265 -811 -262 0
-265 811 0
-265 262 0
266 -798 -7 0
-266 798 0
-266 7 0
267 -266 -30 0
-267 266 0
-267 30 0
268 -812 -265 0
-268 812 0
-268 265 0
269 -746 -707 0
-269 746 0
-269 707 0
270 -269 -730 0
-270 269 0
-270 730 0
271 -813 -268 0
-271 813 0
-271 268 0
272 -42 -793 0
-272 42 0
-272 793 0
273 -272 -742 0
-273 272 0
-273 742 0
274 -814 -271 0
-274 814 0
-274 271 0
275 -26 -19 0
-275 26 0
-275 19 0
276 -275 -44 0
-276 275 0
-276 44 0
277 -815 -274 0
-277 815 0
-277 274 0
278 -25 -749 0
-278 25 0
-278 749 0
279 -278 -735 0
-279 278 0
-279 735 0
280 -816 -277 0
-280 816 0
-280 277 0
281 -722 -737 0
-281 722 0
-281 737 0
282 -281 -23 0
-282 281 0
-282 23 0
283 -817 -280 0
-283 817 0
-283 280 0
284 -749 -734 0
-284 749 0
-284 734 0
285 -284 -33 0
-285 284 0
-285 33 0
286 -818 -283 0
-286 818 0
-286 283 0
287 -752 -9 0
-287 752 0
-287 9 0
288 -287 -819 0
-288 287 0
-288 819 0
289 -820 -286 0
-289 820 0
-289 286 0
290 -45 -761 0
-290 45 0
-290 761 0
291 -290 -37 0
-291 290 0
-291 37 0
292 -821 -289 0
-292 821 0
-292 289 0
293 -28 -1 0
-293 28 0
-293 1 0
294 -293 -822 0
-294 293 0
-294 822 0
295 -823 -292 0
-295 823 0
-295 292 0
296 -42 -700 0
-296 42 0
-296 700 0
297 -296 -725 0
-297 296 0
-297 725 0
298 -824 -295 0
-298 824 0
-298 295 0
299 -48 -798 0
-299 48 0
-299 798 0
300 -299 -742 0
-300 299 0
-300 742 0
301 -825 -298 0
-301 825 0
-301 298 0
302 -49 -29 0
-302 49 0
-302 29 0
303 -302 -42 0
-303 302 0
-303 42 0
304 -826 -301 0
-304 826 0
-304 301 0
305 -730 -709 0
-305 730 0
-305 709 0
306 -305 -44 0
-306 305 0
-306 44 0
307 -827 -304 0
-307 827 0
-307 304 0
308 -41 -29 0
-308 41 0
-308 29 0
309 -308 -25 0
-309 308 0
-309 25 0
310 -828 -307 0
-310 828 0
-310 307 0
311 -829 -734 0
-311 829 0
-311 734 0
312 -311 -42 0
-312 311 0
-312 42 0
313 -830 -310 0
-313 830 0
-313 310 0
314 -831 -832 0
-314 831 0
-314 832 0
315 -314 -786 0
-315 314 0
-315 786 0
316 -833 -313 0
-316 833 0
-316 313 0
317 -239 -21 0
-317 239 0
-317 21 0
318 -834 -316 0
-318 834 0
-318 316 0
319 -49 -761 0
-319 49 0
-319 761 0
320 -319 -26 0
-320 319 0
-320 26 0
321 -835 -318 0
-321 835 0
-321 318 0
322 -32 -5 0
-322 32 0
-322 5 0
323 -322 -37 0
-323 322 0
-323 37 0
324 -836 -321 0
-324 836 0
-324 321 0
325 -831 -754 0
-325 831 0
-325 754 0
326 -325 -786 0
-326 325 0
-326 786 0
327 -837 -324 0
-327 837 0
-327 324 0
328 -38 -725 0
-328 38 0
-328 725 0
329 -328 -838 0
-329 328 0
-329 838 0
330 -839 -327 0
-330 839 0
-330 327 0
331 -737 -4 0
-331 737 0
-331 4 0
332 -331 -761 0
-332 331 0
-332 761 0
333 -840 -330 0
-333 840 0
-333 330 0
334 -789 -30 0
-334 789 0
-334 30 0
335 -334 -841 0
-335 334 0
-335 841 0
336 -842 -333 0
-336 842 0
-336 333 0
337 -725 -737 0
-337 725 0
-337 737 0
338 -337 -15 0
-338 337 0
-338 15 0
339 -843 -336 0
-339 843 0
-339 336 0
340 -49 -14 0
-340 49 0
-340 14 0
341 -340 -9 0
-341 340 0
-341 9 0
342 -844 -339 0
-342 844 0
-342 339 0
343 -29 -9 0
-343 29 0
-343 9 0
344 -343 -24 0
-344 343 0
-344 24 0
345 -845 -342 0
-345 845 0
-345 342 0
346 -746 -715 0
-346 746 0
-346 715 0
347 -346 -21 0
-347 346 0
-347 21 0
348 -846 -345 0
-348 846 0
-348 345 0
349 -31 -725 0
-349 31 0
-349 725 0
350 -349 -44 0
-350 349 0
-350 44 0
351 -847 -348 0
-351 847 0
-351 348 0
352 -798 -29 0
-352 798 0
-352 29 0
353 -352 -720 0
-353 352 0
-353 720 0
354 -848 -351 0
-354 848 0
-354 351 0
355 -44 -15 0
-355 44 0
-355 15 0
356 -355 -33 0
-356 355 0
-356 33 0
357 -849 -354 0
-357 849 0
-357 354 0
358 -771 -34 0
-358 771 0
-358 34 0
359 -358 -730 0
-359 358 0
-359 730 0
360 -850 -357 0
-360 850 0
-360 357 0
361 -18 -8 0
-361 18 0
-361 8 0
362 -361 -841 0
-362 361 0
-362 841 0
363 -851 -360 0
-363 851 0
-363 360 0
364 -9 -7 0
-364 9 0
-364 7 0
365 -364 -22 0
-365 364 0
-365 22 0
366 -852 -363 0
-366 852 0
-366 363 0
367 -9 -715 0
-367 9 0
-367 715 0
368 -367 -744 0
-368 367 0
-368 744 0
369 -853 -366 0
-369 853 0
-369 366 0
370 -12 -701 0
-370 12 0
-370 701 0
371 -370 -20 0
-371 370 0
-371 20 0
372 -854 -369 0
-372 854 0
-372 369 0
373 -793 -9 0
-373 793 0
-373 9 0
374 -373 -24 0
-374 373 0
-374 24 0
375 -855 -372 0
-375 855 0
-375 372 0
376 -725 -715 0
-376 725 0
-376 715 0
377 -376 -810 0
-377 376 0
-377 810 0
378 -856 -375 0
-378 856 0
-378 375 0
379 -45 -2 0
-379 45 0
-379 2 0
380 -379 -712 0
-380 379 0
-380 712 0
381 -857 -378 0
-381 857 0
-381 378 0
382 -707 -719 0
-382 707 0
-382 719 0
383 -382 -13 0
-383 382 0
-383 13 0
384 -858 -381 0
-384 858 0
-384 381 0
385 -49 -11 0
-385 49 0
-385 11 0
386 -385 -27 0
-386 385 0
-386 27 0
387 -859 -384 0
-387 859 0
-387 384 0
388 -41 -829 0
-388 41 0
-388 829 0
389 -388 -735 0
-389 388 0
-389 735 0
390 -860 -387 0
-390 860 0
-390 387 0
391 -24 -734 0
-391 24 0
-391 734 0
392 -391 -735 0
-392 391 0
-392 735 0
393 -861 -390 0
-393 861 0
-393 390 0
394 -754 -6 0
-394 754 0
-394 6 0
395 -394 -810 0
-395 394 0
-395 810 0
396 -862 -393 0
-396 862 0
-396 393 0
397 -822 -832 0
-397 822 0
-397 832 0
398 -397 -742 0
-398 397 0
-398 742 0
399 -863 -396 0
-399 863 0
-399 396 0
400 -28 -13 0
-400 28 0
-400 13 0
401 -400 -730 0
-401 400 0
-401 730 0
402 -864 -399 0
-402 864 0
-402 399 0
403 -47 -44 0
-403 47 0
-403 44 0
404 -403 -739 0
-404 403 0
-404 739 0
405 -865 -402 0
-405 865 0
-405 402 0
406 -734 -707 0
-406 734 0
-406 707 0
407 -406 -10 0
-407 406 0
-407 10 0
408 -866 -405 0
-408 866 0
-408 405 0
409 -801 -700 0
-409 801 0
-409 700 0
410 -409 -21 0
-410 409 0
-410 21 0
411 -867 -408 0
-411 867 0
-411 408 0
412 -36 -9 0
-412 36 0
-412 9 0
413 -412 -744 0
-413 412 0
-413 744 0
414 -868 -411 0
-414 868 0
-414 411 0
415 -780 -769 0
-415 780 0
-415 769 0
416 -415 -10 0
-416 415 0
-416 10 0
417 -869 -414 0
-417 869 0
-417 414 0
418 -35 -26 0
-418 35 0
-418 26 0
419 -418 -36 0
-419 418 0
-419 36 0
420 -870 -417 0
-420 870 0
-420 417 0
421 -50 -12 0
-421 50 0
-421 12 0
422 -421 -780 0
-422 421 0
-422 780 0
423 -871 -420 0
-423 871 0
-423 420 0
424 -13 -705 0
-424 13 0
-424 705 0
425 -424 -10 0
-425 424 0
-425 10 0
426 -872 -423 0
-426 872 0
-426 423 0
427 -780 -829 0
-427 780 0
-427 829 0
428 -427 -737 0
-428 427 0
-428 737 0
429 -873 -426 0
-429 873 0
-429 426 0
430 -746 -9 0
-430 746 0
-430 9 0
431 -430 -26 0
-431 430 0
-431 26 0
432 -874 -429 0
-432 874 0
-432 429 0
433 -793 -29 0
-433 793 0
-433 29 0
434 -433 -43 0
-434 433 0
-434 43 0
435 -875 -432 0
-435 875 0
-435 432 0
436 -39 -7 0
-436 39 0
-436 7 0
437 -436 -720 0
-437 436 0
-437 720 0
438 -876 -435 0
-438 876 0
-438 435 0
439 -801 -16 0
-439 801 0
-439 16 0
440 -439 -739 0
-440 439 0
-440 739 0
441 -877 -438 0
-441 877 0
-441 438 0
442 -39 -16 0
-442 39 0
-442 16 0
443 -442 -744 0
-443 442 0
-443 744 0
444 -878 -441 0
-444 878 0
-444 441 0
445 -879 -701 0
-445 879 0
-445 701 0
446 -445 -752 0
-446 445 0
-446 752 0
447 -880 -444 0
-447 880 0
-447 444 0
448 -769 -4 0
-448 769 0
-448 4 0
449 -448 -739 0
-449 448 0
-449 739 0
450 -881 -447 0
-450 881 0
-450 447 0
451 -761 -754 0
-451 761 0
-451 754 0
452 -451 -730 0
-452 451 0
-452 730 0
453 -882 -450 0
-453 882 0
-453 450 0
454 -7 -711 0
-454 7 0
-454 711 0
455 -454 -712 0
-455 454 0
-455 712 0
456 -883 -453 0
-456 883 0
-456 453 0
457 -42 -17 0
-457 42 0
-457 17 0
458 -457 -21 0
-458 457 0
-458 21 0
459 -884 -456 0
-459 884 0
-459 456 0
460 -14 -9 0
-460 14 0
-460 9 0
461 -460 -17 0
-461 460 0
-461 17 0
462 -885 -459 0
-462 885 0
-462 459 0
463 -37 -719 0
-463 37 0
-463 719 0
464 -463 -20 0
-464 463 0
-464 20 0
465 -886 -462 0
-465 886 0
-465 462 0
466 -30 -26 0
-466 30 0
-466 26 0
467 -466 -749 0
-467 466 0
-467 749 0
468 -887 -465 0
-468 887 0
-468 465 0
469 -730 -719 0
-469 730 0
-469 719 0
470 -469 -742 0
-470 469 0
-470 742 0
471 -888 -468 0
-471 888 0
-471 468 0
472 -50 -730 0
-472 50 0
-472 730 0
473 -472 -23 0
-473 472 0
-473 23 0
474 -889 -471 0
-474 889 0
-474 471 0
475 -831 -28 0
-475 831 0
-475 28 0
476 -475 -705 0
-476 475 0
-476 705 0
477 -890 -474 0
-477 890 0
-477 474 0
478 -755 -13 0
-478 755 0
-478 13 0
479 -478 -44 0
-479 478 0
-479 44 0
480 -891 -477 0
-480 891 0
-480 477 0
481 -722 -9 0
-481 722 0
-481 9 0
482 -481 -720 0
-482 481 0
-482 720 0
483 -892 -480 0
-483 892 0
-483 480 0
484 -793 -18 0
-484 793 0
-484 18 0
485 -484 -755 0
-485 484 0
-485 755 0
486 -893 -483 0
-486 893 0
-486 483 0
487 -32 -737 0
-487 32 0
-487 737 0
488 -487 -810 0
-488 487 0
-488 810 0
489 -894 -486 0
-489 894 0
-489 486 0
490 -27 -10 0
-490 27 0
-490 10 0
491 -490 -735 0
-491 490 0
-491 735 0
492 -895 -489 0
-492 895 0
-492 489 0
493 -46 -29 0
-493 46 0
-493 29 0
494 -493 -879 0
-494 493 0
-494 879 0
495 -896 -492 0
-495 896 0
-495 492 0
496 -388 -755 0
-496 388 0
-496 755 0
497 -897 -495 0
-497 897 0
-497 495 0
498 -732 -829 0
-498 732 0
-498 829 0
499 -498 -898 0
-499 498 0
-499 898 0
500 -899 -497 0
-500 899 0
-500 497 0
501 -50 -35 0
-501 50 0
-501 35 0
502 -501 -749 0
-502 501 0
-502 749 0
503 -900 -500 0
-503 900 0
-503 500 0
504 -701 -1 0
-504 701 0
-504 1 0
505 -504 -15 0
-505 504 0
-505 15 0
506 -901 -503 0
-506 901 0
-506 503 0
507 -793 -4 0
-507 793 0
-507 4 0
508 -507 -769 0
-508 507 0
-508 769 0
509 -902 -506 0
-509 902 0
-509 506 0
510 -49 -832 0
-510 49 0
-510 832 0
511 -510 -822 0
-511 510 0
-511 822 0
512 -903 -509 0
-512 903 0
-512 509 0
513 -793 -10 0
-513 793 0
-513 10 0
514 -513 -822 0
-514 513 0
-514 822 0
515 -904 -512 0
-515 904 0
-515 512 0
516 -41 -4 0
-516 41 0
-516 4 0
517 -516 -43 0
-517 516 0
-517 43 0
518 -905 -515 0
-518 905 0
-518 515 0
519 -754 -11 0
-519 754 0
-519 11 0
520 -519 -24 0
-520 519 0
-520 24 0
521 -906 -518 0
-521 906 0
-521 518 0
522 -782 -16 0
-522 782 0
-522 16 0
523 -522 -26 0
-523 522 0
-523 26 0
524 -907 -521 0
-524 907 0
-524 521 0
525 -832 -734 0
-525 832 0
-525 734 0
526 -525 -819 0
-526 525 0
-526 819 0
527 -908 -524 0
-527 908 0
-527 524 0
528 -26 -707 0
-528 26 0
-528 707 0
529 -528 -739 0
-529 528 0
-529 739 0
530 -909 -527 0
-530 909 0
-530 527 0
531 -832 -715 0
-531 832 0
-531 715 0
532 -531 -725 0
-532 531 0
-532 725 0
533 -910 -530 0
-533 910 0
-533 530 0
534 -10 -5 0
-534 10 0
-534 5 0
535 -534 -44 0
-535 534 0
-535 44 0
536 -911 -533 0
-536 911 0
-536 533 0
537 -35 -722 0
-537 35 0
-537 722 0
538 -537 -48 0
-538 537 0
-538 48 0
539 -912 -536 0
-539 912 0
-539 536 0
540 -325 -47 0
-540 325 0
-540 47 0
541 -913 -539 0
-541 913 0
-541 539 0
542 -831 -9 0
-542 831 0
-542 9 0
543 -542 -36 0
-543 542 0
-543 36 0
544 -914 -541 0
-544 914 0
-544 541 0
545 -739 -754 0
-545 739 0
-545 754 0
546 -545 -744 0
-546 545 0
-546 744 0
547 -915 -544 0
-547 915 0
-547 544 0
548 -43 -25 0
-548 43 0
-548 25 0
549 -548 -15 0
-549 548 0
-549 15 0
550 -916 -547 0
-550 916 0
-550 547 0
551 -711 -719 0
-551 711 0
-551 719 0
552 -551 -11 0
-552 551 0
-552 11 0
553 -917 -550 0
-553 917 0
-553 550 0
554 -829 -711 0
-554 829 0
-554 711 0
555 -554 -838 0
-555 554 0
-555 838 0
556 -918 -553 0
-556 918 0
-556 553 0
557 -782 -41 0
-557 782 0
-557 41 0
558 -557 -25 0
-558 557 0
-558 25 0
559 -919 -556 0
-559 919 0
-559 556 0
560 -720 -734 0
-560 720 0
-560 734 0
561 -560 -822 0
-561 560 0
-561 822 0
562 -920 -559 0
-562 920 0
-562 559 0
563 -32 -15 0
-563 32 0
-563 15 0
564 -563 -744 0
-564 563 0
-564 744 0
565 -921 -562 0
-565 921 0
-565 562 0
566 -720 -1 0
-566 720 0
-566 1 0
567 -566 -712 0
-567 566 0
-567 712 0
568 -922 -565 0
-568 922 0
-568 565 0
569 -786 -9 0
-569 786 0
-569 9 0
570 -569 -11 0
-570 569 0
-570 11 0
571 -923 -568 0
-571 923 0
-571 568 0
572 -793 -741 0
-572 793 0
-572 741 0
573 -572 -737 0
-573 572 0
-573 737 0
574 -924 -571 0
-574 924 0
-574 571 0
575 -49 -37 0
-575 49 0
-575 37 0
576 -575 -898 0
-576 575 0
-576 898 0
577 -925 -574 0
-577 925 0
-577 574 0
578 -748 -29 0
-578 748 0
-578 29 0
579 -578 -36 0
-579 578 0
-579 36 0
580 -926 -577 0
-580 926 0
-580 577 0
581 -832 -14 0
-581 832 0
-581 14 0
582 -581 -739 0
-582 581 0
-582 739 0
583 -927 -580 0
-583 927 0
-583 580 0
584 -769 -720 0
-584 769 0
-584 720 0
585 -584 -730 0
-585 584 0
-585 730 0
586 -928 -583 0
-586 928 0
-586 583 0
587 -27 -26 0
-587 27 0
-587 26 0
588 -587 -22 0
-588 587 0
-588 22 0
589 -929 -586 0
-589 929 0
-589 586 0
590 -789 -26 0
-590 789 0
-590 26 0
591 -590 -735 0
-591 590 0
-591 735 0
592 -930 -589 0
-592 930 0
-592 589 0
593 -50 -13 0
-593 50 0
-593 13 0
594 -593 -752 0
-594 593 0
-594 752 0
595 -931 -592 0
-595 931 0
-595 592 0
596 -754 -1 0
-596 754 0
-596 1 0
597 -596 -742 0
-597 596 0
-597 742 0
598 -932 -595 0
-598 932 0
-598 595 0
599 -804 -933 0
-599 804 0
-599 933 0
600 -599 -735 0
-600 599 0
-600 735 0
601 -934 -598 0
-601 934 0
-601 598 0
602 -48 -780 0
-602 48 0
-602 780 0
603 -602 -20 0
-603 602 0
-603 20 0
604 -935 -601 0
-604 935 0
-604 601 0
605 -732 -701 0
-605 732 0
-605 701 0
606 -605 -730 0
-606 605 0
-606 730 0
607 -936 -604 0
-607 936 0
-607 604 0
608 -257 -898 0
-608 257 0
-608 898 0
609 -937 -607 0
-609 937 0
-609 607 0
610 -829 -754 0
-610 829 0
-610 754 0
611 -610 -49 0
-611 610 0
-611 49 0
612 -938 -609 0
-612 938 0
-612 609 0
613 -25 -7 0
-613 25 0
-613 7 0
614 -613 -6 0
-614 613 0
-614 6 0
615 -939 -612 0
-615 939 0
-615 612 0
616 -40 -730 0
-616 40 0
-616 730 0
617 -616 -36 0
-617 616 0
-617 36 0
618 -940 -615 0
-618 940 0
-618 615 0
619 -755 -933 0
-619 755 0
-619 933 0
620 -619 -43 0
-620 619 0
-620 43 0
621 -941 -618 0
-621 941 0
-621 618 0
622 -49 -737 0
-622 49 0
-622 737 0
623 -622 -39 0
-623 622 0
-623 39 0
624 -942 -621 0
-624 942 0
-624 621 0
625 -8 -7 0
-625 8 0
-625 7 0
626 -625 -752 0
-626 625 0
-626 752 0
627 -943 -624 0
-627 943 0
-627 624 0
628 -7 -719 0
-628 7 0
-628 719 0
629 -628 -737 0
-629 628 0
-629 737 0
630 -944 -627 0
-630 944 0
-630 627 0
631 -35 -3 0
-631 35 0
-631 3 0
632 -631 -20 0
-632 631 0
-632 20 0
633 -945 -630 0
-633 945 0
-633 630 0
634 -39 -769 0
-634 39 0
-634 769 0
635 -634 -730 0
-635 634 0
-635 730 0
636 -946 -633 0
-636 946 0
-636 633 0
637 -780 -35 0
-637 780 0
-637 35 0
638 -637 -22 0
-638 637 0
-638 22 0
639 -947 -636 0
-639 947 0
-639 636 0
640 -17 -9 0
-640 17 0
-640 9 0
641 -640 -701 0
-641 640 0
-641 701 0
642 -948 -639 0
-642 948 0
-642 639 0
643 -761 -709 0
-643 761 0
-643 709 0
644 -643 -43 0
-644 643 0
-644 43 0
645 -949 -642 0
-645 949 0
-645 642 0
646 -28 -879 0
-646 28 0
-646 879 0
647 -646 -20 0
-647 646 0
-647 20 0
648 -950 -645 0
-648 950 0
-648 645 0
649 -831 -10 0
-649 831 0
-649 10 0
650 -649 -33 0
-650 649 0
-650 33 0
651 -951 -648 0
-651 951 0
-651 648 0
652 -46 -4 0
-652 46 0
-652 4 0
653 -652 -30 0
-653 652 0
-653 30 0
654 -952 -651 0
-654 952 0
-654 651 0
655 -16 -5 0
-655 16 0
-655 5 0
656 -655 -822 0
-656 655 0
-656 822 0
657 -953 -654 0
-657 953 0
-657 654 0
658 -41 -737 0
-658 41 0
-658 737 0
659 -658 -730 0
-659 658 0
-659 730 0
660 -954 -657 0
-660 954 0
-660 657 0
661 -41 -709 0
-661 41 0
-661 709 0
662 -661 -898 0
-662 661 0
-662 898 0
663 -955 -660 0
-663 955 0
-663 660 0
664 -38 -711 0
-664 38 0
-664 711 0
665 -664 -22 0
-665 664 0
-665 22 0
666 -956 -663 0
-666 956 0
-666 663 0
667 -16 -712 0
-667 16 0
-667 712 0
668 -667 -37 0
-668 667 0
-668 37 0
669 -957 -666 0
-669 957 0
-669 666 0
670 -801 -752 0
-670 801 0
-670 752 0
671 -670 -36 0
-671 670 0
-671 36 0
672 -958 -669 0
-672 958 0
-672 669 0
673 -49 -819 0
-673 49 0
-673 819 0
674 -673 -742 0
-674 673 0
-674 742 0
675 -959 -672 0
-675 959 0
-675 672 0
676 -810 -746 0
-676 810 0
-676 746 0
677 -676 -744 0
-677 676 0
-677 744 0
678 -960 -675 0
-678 960 0
-678 675 0
679 -18 -11 0
-679 18 0
-679 11 0
680 -679 -755 0
-680 679 0
-680 755 0
681 -961 -678 0
-681 961 0
-681 678 0
682 -24 -707 0
-682 24 0
-682 707 0
683 -682 -40 0
-683 682 0
-683 40 0
684 -962 -681 0
-684 962 0
-684 681 0
685 -42 -19 0
-685 42 0
-685 19 0
686 -685 -43 0
-686 685 0
-686 43 0
687 -963 -684 0
-687 963 0
-687 684 0
688 -31 -18 0
-688 31 0
-688 18 0
689 -688 -720 0
-689 688 0
-689 720 0
690 -964 -687 0
-690 964 0
-690 687 0
691 -804 -1 0
-691 804 0
-691 1 0
692 -691 -47 0
-692 691 0
-692 47 0
693 -965 -690 0
-693 965 0
-693 690 0
694 -40 -12 0
-694 40 0
-694 12 0
695 -694 -20 0
-695 694 0
-695 20 0
696 -966 -693 0
-696 966 0
-696 693 0
697 -771 -707 0
-697 771 0
-697 707 0
698 -697 -22 0
-698 697 0
-698 22 0
699 -967 -696 0
-699 967 0
-699 696 0
-700 -4 0
700 4 0
-701 -6 0
701 6 0
-702 -54 0
702 54 0
-703 -52 0
703 52 0
-704 -57 0
704 57 0
-705 -8 0
705 8 0
-706 -60 0
706 60 0
-707 -7 0
707 7 0
-708 -63 0
708 63 0
-709 -14 0
709 14 0
-710 -66 0
710 66 0
-711 -2 0
711 2 0
-712 -15 0
712 15 0
-713 -69 0
713 69 0
-714 -72 0
714 72 0
-715 -5 0
715 5 0
-716 -75 0
716 75 0
-717 -78 0
717 78 0
-718 -81 0
718 81 0
-719 -1 0
719 1 0
-720 -24 0
720 24 0
-721 -84 0
721 84 0
-722 -25 0
722 25 0
-723 -26 0
723 26 0
-724 -87 0
724 87 0
-725 -27 0
725 27 0
-726 -90 0
726 90 0
-727 -93 0
727 93 0
-728 -96 0
728 96 0
-729 -99 0
729 99 0
-730 -21 0
730 21 0
-731 -102 0
731 102 0
-732 -31 0
732 31 0
-733 -105 0
733 105 0
-734 -12 0
734 12 0
-735 -33 0
735 33 0
-736 -108 0
736 108 0
-737 -17 0
737 17 0
-738 -111 0
738 111 0
-739 -36 0
739 36 0
-740 -114 0
740 114 0
-741 -9 0
741 9 0
-742 -20 0
742 20 0
-743 -117 0
743 117 0
-744 -23 0
744 23 0
-745 -120 0
745 120 0
-746 -11 0
746 11 0
-747 -123 0
747 123 0
-748 -39 0
748 39 0
-749 -22 0
749 22 0
-750 -126 0
750 126 0
-751 -129 0
751 129 0
-752 -40 0
752 40 0
-753 -132 0
753 132 0
-754 -13 0
754 13 0
-755 -42 0
755 42 0
-756 -135 0
756 135 0
-757 -138 0
757 138 0
-758 -141 0
758 141 0
-759 -144 0
759 144 0
-760 -147 0
760 147 0
-761 -18 0
761 18 0
-762 -150 0
762 150 0
-763 -153 0
763 153 0
-764 -156 0
764 156 0
-765 -159 0
765 159 0
-766 -162 0
766 162 0
-767 -165 0
767 165 0
-768 -168 0
768 168 0
-769 -30 0
769 30 0
-770 -171 0
770 171 0
-771 -41 0
771 41 0
-772 -174 0
772 174 0
-773 -177 0
773 177 0
-774 -180 0
774 180 0
-775 -183 0
775 183 0
-776 -186 0
776 186 0
-777 -189 0
777 189 0
-778 -192 0
778 192 0
-779 -195 0
779 195 0
-780 -46 0
780 46 0
-781 -198 0
781 198 0
-782 -45 0
782 45 0
-783 -201 0
783 201 0
-784 -204 0
784 204 0
-785 -207 0
785 207 0
-786 -38 0
786 38 0
-787 -210 0
787 210 0
-788 -213 0
788 213 0
-789 -49 0
789 49 0
-790 -216 0
790 216 0
-791 -219 0
791 219 0
-792 -222 0
792 222 0
-793 -32 0
793 32 0
-794 -225 0
794 225 0
-795 -228 0
795 228 0
-796 -231 0
796 231 0
-797 -234 0
797 234 0
-798 -35 0
798 35 0
-799 -237 0
799 237 0
-800 -240 0
800 240 0
-801 -43 0
801 43 0
-802 -243 0
802 243 0
-803 -246 0
803 246 0
-804 -29 0
804 29 0
-805 -249 0
805 249 0
-806 -252 0
806 252 0
-807 -255 0
807 255 0
-808 -258 0
808 258 0
-809 -261 0
809 261 0
-810 -37 0
810 37 0
-811 -264 0
811 264 0
-812 -267 0
812 267 0
-813 -270 0
813 270 0
-814 -273 0
814 273 0
-815 -276 0
815 276 0
-816 -279 0
816 279 0
-817 -282 0
817 282 0
-818 -285 0
818 285 0
-819 -47 0
819 47 0
-820 -288 0
820 288 0
-821 -291 0
821 291 0
-822 -44 0
822 44 0
-823 -294 0
823 294 0
-824 -297 0
824 297 0
-825 -300 0
825 300 0
-826 -303 0
826 303 0
-827 -306 0
827 306 0
-828 -309 0
828 309 0
-829 -16 0
829 16 0
-830 -312 0
830 312 0
-831 -50 0
831 50 0
-832 -34 0
832 34 0
-833 -315 0
833 315 0
-834 -317 0
834 317 0
-835 -320 0
835 320 0
-836 -323 0
836 323 0
-837 -326 0
837 326 0
-838 -3 0
838 3 0
-839 -329 0
839 329 0
-840 -332 0
840 332 0
-841 -10 0
841 10 0
-842 -335 0
842 335 0
-843 -338 0
843 338 0
-844 -341 0
844 341 0
-845 -344 0
845 344 0
-846 -347 0
846 347 0
-847 -350 0
847 350 0
-848 -353 0
848 353 0
-849 -356 0
849 356 0
-850 -359 0
850 359 0
-851 -362 0
851 362 0
-852 -365 0
852 365 0
-853 -368 0
853 368 0
-854 -371 0
854 371 0
-855 -374 0
855 374 0
-856 -377 0
856 377 0
-857 -380 0
857 380 0
-858 -383 0
858 383 0
-859 -386 0
859 386 0
-860 -389 0
860 389 0
-861 -392 0
861 392 0
-862 -395 0
862 395 0
-863 -398 0
863 398 0
-864 -401 0
864 401 0
-865 -404 0
865 404 0
-866 -407 0
866 407 0
-867 -410 0
867 410 0
-868 -413 0
868 413 0
-869 -416 0
869 416 0
-870 -419 0
870 419 0
-871 -422 0
871 422 0
-872 -425 0
872 425 0
-873 -428 0
873 428 0
-874 -431 0
874 431 0
-875 -434 0
875 434 0
-876 -437 0
876 437 0
-877 -440 0
877 440 0
-878 -443 0
878 443 0
-879 -19 0
879 19 0
-880 -446 0
880 446 0
-881 -449 0
881 449 0
-882 -452 0
882 452 0
-883 -455 0
883 455 0
-884 -458 0
884 458 0
-885 -461 0
885 461 0
-886 -464 0
886 464 0
-887 -467 0
887 467 0
-888 -470 0
888 470 0
-889 -473 0
889 473 0
-890 -476 0
890 476 0
-891 -479 0
891 479 0
-892 -482 0
892 482 0
-893 -485 0
893 485 0
-894 -488 0
894 488 0
-895 -491 0
895 491 0
-896 -494 0
896 494 0
-897 -496 0
897 496 0
-898 -48 0
898 48 0
-899 -499 0
899 499 0
-900 -502 0
900 502 0
-901 -505 0
901 505 0
-902 -508 0
902 508 0
-903 -511 0
903 511 0
-904 -514 0
904 514 0
-905 -517 0
905 517 0
-906 -520 0
906 520 0
-907 -523 0
907 523 0
-908 -526 0
908 526 0
-909 -529 0
909 529 0
-910 -532 0
910 532 0
-911 -535 0
911 535 0
-912 -538 0
912 538 0
-913 -540 0
913 540 0
-914 -543 0
914 543 0
-915 -546 0
915 546 0
-916 -549 0
916 549 0
-917 -552 0
917 552 0
-918 -555 0
918 555 0
-919 -558 0
919 558 0
-920 -561 0
920 561 0
-921 -564 0
921 564 0
-922 -567 0
922 567 0
-923 -570 0
923 570 0
-924 -573 0
924 573 0
-925 -576 0
925 576 0
-926 -579 0
926 579 0
-927 -582 0
927 582 0
-928 -585 0
928 585 0
-929 -588 0
929 588 0
-930 -591 0
930 591 0
-931 -594 0
931 594 0
-932 -597 0
932 597 0
-933 -28 0
933 28 0
-934 -600 0
934 600 0
-935 -603 0
935 603 0
-936 -606 0
936 606 0
-937 -608 0
937 608 0
-938 -611 0
938 611 0
-939 -614 0
939 614 0
-940 -617 0
940 617 0
-941 -620 0
941 620 0
-942 -623 0
942 623 0
-943 -626 0
943 626 0
-944 -629 0
944 629 0
-945 -632 0
945 632 0
-946 -635 0
946 635 0
-947 -638 0
947 638 0
-948 -641 0
948 641 0
-949 -644 0
949 644 0
-950 -647 0
950 647 0
-951 -650 0
951 650 0
-952 -653 0
952 653 0
-953 -656 0
953 656 0
-954 -659 0
954 659 0
-955 -662 0
955 662 0
-956 -665 0
956 665 0
-957 -668 0
957 668 0
-958 -671 0
958 671 0
-959 -674 0
959 674 0
-960 -677 0
960 677 0
-961 -680 0
961 680 0
-962 -683 0
962 683 0
-963 -686 0
963 686 0
-964 -689 0
964 689 0
-965 -692 0
965 692 0
-966 -695 0
966 695 0
-967 -698 0
967 698 0
699 0
